============================[ Problem Statistics ]=============================|                                                                             ||  Number of variables:          4242                                         ||  Number of clauses:            9969                                         ||  Parse time:                   0.37 s                                       ||                                                                             |============================[ Search Statistics ]==============================| Conflicts |          ORIGINAL         |          LEARNT          | Progress ||           |    Vars  Clauses Literals |    Limit  Clauses Lit/Cl |          |===============================================================================|       100 |    1591     6174   570235 |     2263      100     53 | 62.501 % |===============================================================================restarts              : 3conflicts             : 208            (373 /sec)decisions             : 474            (0.00 % random) (851 /sec)propagations          : 11668          (20948 /sec)conflict literals     : 14849          (95.11 % deleted)CPU time              : 0.557 sSATISFIABLE